(set-info :status unsat)
(declare-datatypes ((Nat 0)) (((z) (s (pred Nat)))))
(assert (not (exists ((w6 Nat)) (and (or (= (s (s (s (s (s (s (s (s (s (s (s (s (s (s (s (s z)))))))))))))))) (s w6)) (= (s (s (s (s (s (s (s (s (s (s (s (s (s (s (s (s z)))))))))))))))) (s (s w6)))) (forall ((l5 Nat)) (=> (or (= w6 (s l5)) (= w6 (s (s l5)))) (exists ((w5 Nat)) (and (or (= l5 (s w5)) (= l5 (s (s w5)))) (forall ((l4 Nat)) (=> (or (= w5 (s l4)) (= w5 (s (s l4)))) (exists ((w4 Nat)) (and (or (= l4 (s w4)) (= l4 (s (s w4)))) (forall ((l3 Nat)) (=> (or (= w4 (s l3)) (= w4 (s (s l3)))) (exists ((w3 Nat)) (and (or (= l3 (s w3)) (= l3 (s (s w3)))) (forall ((l2 Nat)) (=> (or (= w3 (s l2)) (= w3 (s (s l2)))) (exists ((w2 Nat)) (and (or (= l2 (s w2)) (= l2 (s (s w2)))) (forall ((l1 Nat)) (=> (or (= w2 (s l1)) (= w2 (s (s l1)))) (exists ((w1 Nat)) (and (or (= l1 (s w1)) (= l1 (s (s w1)))) (forall ((l0 Nat)) (=> (or (= w1 (s l0)) (= w1 (s (s l0)))) false))))))))))))))))))))))))))
(check-sat)
